certificates/rado_a3_c65_N21.drat
-21 0
19 0
-11 0
9 0
13 0
-1 0
-17 0
-5 0
3 0
15 0
7 0
0
